; benchmark generated from python API
(set-info :status unknown)
(declare-fun S_5 () Real)
(declare-fun L_0 () Real)
(declare-fun A_0 () Real)
(declare-fun A_1 () Real)
(declare-fun A_5 () Real)
(declare-fun Q_5 () Real)
(declare-fun A_4 () Real)
(declare-fun A_3 () Real)
(declare-fun A_2 () Real)
(declare-fun S_4 () Real)
(declare-fun S_3 () Real)
(declare-fun S_2 () Real)
(declare-fun S_1 () Real)
(declare-fun S_0 () Real)
(declare-fun a () Real)
(assert
 (exists ((I_0 Real) (I_1 Real) (I_2 Real) (I_3 Real) (I_4 Real) (I_5 Real) (L_1 Real) (L_2 Real) (L_3 Real) (L_4 Real) (L_5 Real) (C Real) (B Real) )(let ((?x40 (- A_0 L_0)))
 (let (($x148 (<= ?x40 S_5)))
 (let (($x146 (>= A_5 A_4)))
 (let (($x145 (>= A_4 A_3)))
 (let (($x144 (>= A_3 A_2)))
 (let (($x143 (>= A_2 A_1)))
 (let (($x142 (>= A_1 A_0)))
 (let (($x140 (>= S_5 S_4)))
 (let (($x137 (>= S_4 S_3)))
 (let (($x134 (>= S_3 S_2)))
 (let (($x131 (>= S_2 S_1)))
 (let (($x128 (>= S_1 S_0)))
 (let ((?x167 (- A_5 L_5)))
 (let ((?x181 (* C 1.0)))
 (let ((?x184 (+ I_4 ?x181)))
 (let (($x192 (= I_4 (ite (< (+ I_3 ?x181) (- A_4 L_4)) (+ I_3 ?x181) (- A_4 L_4)))))
 (let (($x197 (= I_3 (ite (< (+ I_2 ?x181) (- A_3 L_3)) (+ I_2 ?x181) (- A_3 L_3)))))
 (let (($x202 (= I_2 (ite (< (+ I_1 ?x181) (- A_2 L_2)) (+ I_1 ?x181) (- A_2 L_2)))))
 (let (($x206 (= I_1 (ite (< (+ I_0 ?x181) (- A_1 L_1)) (+ I_0 ?x181) (- A_1 L_1)))))
 (let (($x207 (= L_5 L_4)))
 (let (($x212 (=> (not (> (- (- A_5 L_4) I_5) B)) $x207)))
 (let (($x210 (> (- (- A_5 L_4) I_5) B)))
 (let (($x216 (=> $x210 (= L_5 (- (- A_5 I_5) B)))))
 (let (($x217 (= L_4 L_3)))
 (let (($x222 (=> (not (> (- (- A_4 L_3) I_4) B)) $x217)))
 (let (($x220 (> (- (- A_4 L_3) I_4) B)))
 (let (($x226 (=> $x220 (= L_4 (- (- A_4 I_4) B)))))
 (let (($x227 (= L_3 L_2)))
 (let (($x232 (=> (not (> (- (- A_3 L_2) I_3) B)) $x227)))
 (let (($x230 (> (- (- A_3 L_2) I_3) B)))
 (let (($x236 (=> $x230 (= L_3 (- (- A_3 I_3) B)))))
 (let (($x237 (= L_2 L_1)))
 (let (($x242 (=> (not (> (- (- A_2 L_1) I_2) B)) $x237)))
 (let (($x240 (> (- (- A_2 L_1) I_2) B)))
 (let (($x246 (=> $x240 (= L_2 (- (- A_2 I_2) B)))))
 (let (($x247 (= L_1 L_0)))
 (let (($x251 (=> (not (> (- (- A_1 L_0) I_1) B)) $x247)))
 (let (($x249 (> (- (- A_1 L_0) I_1) B)))
 (let (($x255 (=> $x249 (= L_1 (- (- A_1 I_1) B)))))
 (let (($x47 (= a 1.0)))
 (let (($x39 (>= L_0 0.0)))
 (and $x39 (<= I_0 ?x40) (>= C (* 5.0 a)) (>= B (* 5.0 a)) $x47 $x255 $x251 $x246 $x242 $x236 $x232 $x226 $x222 $x216 $x212 $x255 $x251 $x246 $x242 $x236 $x232 $x226 $x222 $x216 $x212 $x206 $x202 $x197 $x192 (= I_5 (ite (< ?x184 ?x167) ?x184 ?x167)) (>= S_0 (- I_0 ?x181)) (<= S_0 I_0) (>= S_1 I_0) $x128 (<= S_1 I_1) (>= S_2 I_1) $x131 (<= S_2 I_2) (>= S_3 I_2) $x134 (<= S_3 I_3) (>= S_4 I_3) $x137 (<= S_4 I_4) (>= S_5 I_4) $x140 (<= S_5 I_5) $x142 $x143 $x144 $x145 $x146 (= Q_5 (- ?x167 I_5)) (> (- A_1 L_1) S_5) $x148)))))))))))))))))))))))))))))))))))))))))))
 )
(check-sat)
